p cnf 134 333
a 12 10 8 6 4 2 28 26 24 88 47 45 43 41 39 37 124 1 23 36 0
d 59 12 0
d 49 88 23 0
d 78 28 1 0
d 123 124 36 0
d 3 2 0
d 5 4 0
d 7 6 0
d 9 8 0
d 11 10 0
d 13 12 0
d 14 12 0
d 15 12 0
d 16 10 12 0
d 17 8 10 12 0
d 18 6 8 10 12 0
d 19 4 6 8 10 12 0
d 20 2 4 6 8 10 12 0
d 21 1 2 4 6 8 10 12 0
d 22 1 2 4 6 8 10 12 0
d 25 24 0
d 27 26 0
d 29 28 0
d 30 28 2 4 6 8 10 12 0
d 31 26 28 2 4 6 8 10 12 0
d 32 24 26 28 2 4 6 8 10 12 0
d 33 23 24 26 28 2 4 6 8 10 12 0
d 34 23 24 26 28 2 4 6 8 10 12 0
d 35 1 2 4 6 8 10 12 23 24 26 28 0
d 38 37 0
d 40 39 0
d 42 41 0
d 44 43 0
d 46 45 0
d 48 47 0
d 50 47 88 23 0
d 51 45 47 88 23 0
d 52 43 45 47 88 23 0
d 53 41 43 45 47 88 23 0
d 54 39 41 43 45 47 88 23 0
d 55 37 39 41 43 45 47 88 23 0
d 56 36 37 39 41 43 45 47 88 23 0
d 57 36 37 39 41 43 45 47 88 23 0
d 58 1 2 4 6 8 10 12 23 24 26 28 36 37 39 41 43 45 47 88 0
d 60 12 0
d 61 12 0
d 62 10 12 0
d 63 10 12 0
d 64 12 10 0
d 65 8 10 12 0
d 66 8 10 12 0
d 67 12 10 8 0
d 68 6 8 10 12 0
d 69 6 8 10 12 0
d 70 12 10 8 6 0
d 71 4 6 8 10 12 0
d 72 4 6 8 10 12 0
d 73 12 10 8 6 4 0
d 74 2 4 6 8 10 12 0
d 75 2 4 6 8 10 12 0
d 76 2 4 6 8 10 12 0
d 77 12 10 8 6 4 2 0
d 79 28 2 4 6 8 10 12 0
d 80 28 1 2 4 6 8 10 12 0
d 81 12 10 8 6 4 2 28 1 0
d 82 26 28 2 4 6 8 10 12 0
d 83 26 28 2 4 6 8 10 12 0
d 84 12 10 8 6 4 2 28 1 26 0
d 85 24 26 28 2 4 6 8 10 12 0
d 86 24 26 28 2 4 6 8 10 12 0
d 87 12 10 8 6 4 2 28 1 26 24 0
d 89 88 24 26 28 2 4 6 8 10 12 0
d 90 88 24 26 28 2 4 6 8 10 12 0
d 91 12 10 8 6 4 2 28 1 26 24 88 0
d 92 47 88 23 0
d 93 88 0
d 94 88 24 26 28 2 4 6 8 10 12 0
d 95 47 88 24 26 28 2 4 6 8 10 12 0
d 96 47 88 23 24 26 28 2 4 6 8 10 12 0
d 97 12 10 8 6 4 2 28 1 26 24 88 47 23 0
d 98 45 47 88 23 0
d 99 47 88 24 26 28 2 4 6 8 10 12 0
d 100 45 47 88 24 26 28 2 4 6 8 10 12 0
d 101 45 47 88 23 24 26 28 2 4 6 8 10 12 0
d 102 12 10 8 6 4 2 28 1 26 24 88 47 23 45 0
d 103 43 45 47 88 23 0
d 104 45 47 88 24 26 28 2 4 6 8 10 12 0
d 105 43 45 47 88 24 26 28 2 4 6 8 10 12 0
d 106 43 45 47 88 23 24 26 28 2 4 6 8 10 12 0
d 107 12 10 8 6 4 2 28 1 26 24 88 47 23 45 43 0
d 108 41 43 45 47 88 23 0
d 109 43 45 47 88 24 26 28 2 4 6 8 10 12 0
d 110 41 43 45 47 88 24 26 28 2 4 6 8 10 12 0
d 111 41 43 45 47 88 23 24 26 28 2 4 6 8 10 12 0
d 112 12 10 8 6 4 2 28 1 26 24 88 47 23 45 43 41 0
d 113 39 41 43 45 47 88 23 0
d 114 41 43 45 47 88 24 26 28 2 4 6 8 10 12 0
d 115 39 41 43 45 47 88 24 26 28 2 4 6 8 10 12 0
d 116 39 41 43 45 47 88 23 24 26 28 2 4 6 8 10 12 0
d 117 12 10 8 6 4 2 28 1 26 24 88 47 23 45 43 41 39 0
d 118 37 39 41 43 45 47 88 23 0
d 119 39 41 43 45 47 88 24 26 28 2 4 6 8 10 12 0
d 120 37 39 41 43 45 47 88 24 26 28 2 4 6 8 10 12 0
d 121 37 39 41 43 45 47 88 23 24 26 28 2 4 6 8 10 12 0
d 122 12 10 8 6 4 2 28 1 26 24 88 47 23 45 43 41 39 37 0
d 125 37 39 41 43 45 47 88 24 26 28 2 4 6 8 10 12 0
d 126 124 37 39 41 43 45 47 88 24 26 28 2 4 6 8 10 12 0
d 127 124 36 37 39 41 43 45 47 88 24 26 28 2 4 6 8 10 12 0
d 128 12 10 8 6 4 2 28 1 26 24 88 47 23 45 43 41 39 37 124 36 0
d 129 124 0
d 130 124 37 39 41 43 45 47 88 23 0
d 131 124 37 39 41 43 45 47 88 24 26 28 2 4 6 8 10 12 0
d 132 124 37 39 41 43 45 47 88 23 24 26 28 2 4 6 8 10 12 0
d 133 12 10 8 6 4 2 28 1 26 24 88 47 23 45 43 41 39 37 124 36 0
d 134 1 2 4 6 8 10 12 23 24 26 28 36 37 39 41 43 45 47 88 124 0
3 2 0
-3 -2 0
5 4 0
-5 -4 0
7 6 0
-7 -6 0
9 8 0
-9 -8 0
11 10 0
-11 -10 0
13 12 0
-13 -12 0
14 -12 0
14 -13 0
-14 12 13 0
-15 13 0
-15 14 0
15 -13 -14 0
-16 11 0
-16 15 0
16 -11 -15 0
-17 9 0
-17 16 0
17 -9 -16 0
-18 7 0
-18 17 0
18 -7 -17 0
-19 5 0
-19 18 0
19 -5 -18 0
-20 3 0
-20 19 0
20 -3 -19 0
21 -1 -20 0
21 1 20 0
-21 -1 20 0
-21 1 -20 0
22 21 0
-22 -21 0
25 24 0
-25 -24 0
27 26 0
-27 -26 0
29 28 0
-29 -28 0
-30 29 0
-30 20 0
30 -29 -20 0
-31 27 0
-31 30 0
31 -27 -30 0
-32 25 0
-32 31 0
32 -25 -31 0
33 -23 -32 0
33 23 32 0
-33 -23 32 0
-33 23 -32 0
34 33 0
-34 -33 0
35 -22 0
35 -34 0
-35 22 34 0
38 37 0
-38 -37 0
40 39 0
-40 -39 0
42 41 0
-42 -41 0
44 43 0
-44 -43 0
46 45 0
-46 -45 0
48 47 0
-48 -47 0
-50 48 0
-50 49 0
50 -48 -49 0
-51 46 0
-51 50 0
51 -46 -50 0
-52 44 0
-52 51 0
52 -44 -51 0
-53 42 0
-53 52 0
53 -42 -52 0
-54 40 0
-54 53 0
54 -40 -53 0
-55 38 0
-55 54 0
55 -38 -54 0
56 -36 -55 0
56 36 55 0
-56 -36 55 0
-56 36 -55 0
57 56 0
-57 -56 0
58 -35 0
58 -57 0
-58 35 57 0
-60 12 0
-60 14 0
60 -12 -14 0
61 -59 -60 0
61 59 60 0
-61 -59 60 0
-61 59 -60 0
-62 10 0
-62 15 0
62 -10 -15 0
63 -62 -62 0
63 62 62 0
-63 -62 62 0
-63 62 -62 0
-64 61 0
-64 63 0
64 -61 -63 0
-65 8 0
-65 16 0
65 -8 -16 0
66 -65 -65 0
66 65 65 0
-66 -65 65 0
-66 65 -65 0
-67 64 0
-67 66 0
67 -64 -66 0
-68 6 0
-68 17 0
68 -6 -17 0
69 -68 -68 0
69 68 68 0
-69 -68 68 0
-69 68 -68 0
-70 67 0
-70 69 0
70 -67 -69 0
-71 4 0
-71 18 0
71 -4 -18 0
72 -71 -71 0
72 71 71 0
-72 -71 71 0
-72 71 -71 0
-73 70 0
-73 72 0
73 -70 -72 0
74 -2 19 0
74 2 -19 0
-74 -2 -19 0
-74 2 19 0
-75 2 0
-75 19 0
75 -2 -19 0
76 -74 -75 0
76 74 75 0
-76 -74 75 0
-76 74 -75 0
-77 73 0
-77 76 0
77 -73 -76 0
-79 28 0
-79 20 0
79 -28 -20 0
80 -78 -79 0
80 78 79 0
-80 -78 79 0
-80 78 -79 0
-81 77 0
-81 80 0
81 -77 -80 0
-82 26 0
-82 30 0
82 -26 -30 0
83 -82 -82 0
83 82 82 0
-83 -82 82 0
-83 82 -82 0
-84 81 0
-84 83 0
84 -81 -83 0
-85 24 0
-85 31 0
85 -24 -31 0
86 -85 -85 0
86 85 85 0
-86 -85 85 0
-86 85 -85 0
-87 84 0
-87 86 0
87 -84 -86 0
-89 88 0
-89 32 0
89 -88 -32 0
90 -89 -89 0
90 89 89 0
-90 -89 89 0
-90 89 -89 0
-91 87 0
-91 90 0
91 -87 -90 0
-92 47 0
-92 49 0
92 -47 -49 0
93 88 0
-93 -88 0
-94 93 0
-94 32 0
94 -93 -32 0
-95 47 0
-95 94 0
95 -47 -94 0
96 -92 -95 0
96 92 95 0
-96 -92 95 0
-96 92 -95 0
-97 91 0
-97 96 0
97 -91 -96 0
-98 45 0
-98 50 0
98 -45 -50 0
-99 48 0
-99 94 0
99 -48 -94 0
-100 45 0
-100 99 0
100 -45 -99 0
101 -98 -100 0
101 98 100 0
-101 -98 100 0
-101 98 -100 0
-102 97 0
-102 101 0
102 -97 -101 0
-103 43 0
-103 51 0
103 -43 -51 0
-104 46 0
-104 99 0
104 -46 -99 0
-105 43 0
-105 104 0
105 -43 -104 0
106 -103 -105 0
106 103 105 0
-106 -103 105 0
-106 103 -105 0
-107 102 0
-107 106 0
107 -102 -106 0
-108 41 0
-108 52 0
108 -41 -52 0
-109 44 0
-109 104 0
109 -44 -104 0
-110 41 0
-110 109 0
110 -41 -109 0
111 -108 -110 0
111 108 110 0
-111 -108 110 0
-111 108 -110 0
-112 107 0
-112 111 0
112 -107 -111 0
-113 39 0
-113 53 0
113 -39 -53 0
-114 42 0
-114 109 0
114 -42 -109 0
-115 39 0
-115 114 0
115 -39 -114 0
116 -113 -115 0
116 113 115 0
-116 -113 115 0
-116 113 -115 0
-117 112 0
-117 116 0
117 -112 -116 0
-118 37 0
-118 54 0
118 -37 -54 0
-119 40 0
-119 114 0
119 -40 -114 0
-120 37 0
-120 119 0
120 -37 -119 0
121 -118 -120 0
121 118 120 0
-121 -118 120 0
-121 118 -120 0
-122 117 0
-122 121 0
122 -117 -121 0
-125 38 0
-125 119 0
125 -38 -119 0
-126 124 0
-126 125 0
126 -124 -125 0
127 -123 -126 0
127 123 126 0
-127 -123 126 0
-127 123 -126 0
-128 122 0
-128 127 0
128 -122 -127 0
129 124 0
-129 -124 0
-130 129 0
-130 55 0
130 -129 -55 0
-131 129 0
-131 125 0
131 -129 -125 0
132 -130 -131 0
132 130 131 0
-132 -130 131 0
-132 130 -131 0
-133 128 0
-133 132 0
133 -128 -132 0
134 -58 0
134 -133 0
-134 58 133 0
134 0
